(declare-fun bvlambda_3_ () (_ BitVec 1))
(declare-fun bvlambda_4_ () (_ BitVec 1))
(declare-fun bvlambda_5_ () (_ BitVec 4))
(declare-fun bvlambda_26_ () (_ BitVec 1))
(declare-fun bvlambda_27_ () (_ BitVec 1))
(declare-fun bvlambda_28_ () (_ BitVec 3))
(declare-fun bvlambda_29_ () (_ BitVec 6))
(declare-fun bvlambda_30_ () (_ BitVec 1))
(declare-fun a85 () (Array (_ BitVec 1) (_ BitVec 4)))
(assert
(let (($e1 (_ bv0 1)))
(let (($e2 (_ bv5810 14)))
(let (($e7 (_ bv0 2)))
(let (($e329 (concat $e7 bvlambda_26_)))
(let (($e330 (concat $e329 bvlambda_27_)))
(let (($e331 (concat $e330 bvlambda_28_)))
(let (($e332 (concat $e331 bvlambda_29_)))
(let (($e333 (concat $e332 bvlambda_30_)))
(let (($e334 (bvand $e2 $e333)))
(let (($e335 (bvand (bvnot $e2) (bvnot $e333))))
(let (($e336 (bvand (bvnot $e335) (bvnot $e334))))
(let (($e362 ((_ extract 13 13) $e336)))
(let (($e374                     bvlambda_3_ ))
(let (($e375 (concat $e374 bvlambda_4_)))
(let (($e376 (concat $e375 bvlambda_5_)))
(let (($e377                          $e376       ))
(let (($e378         $e377                            ))
(let (($e381                                  $e378 ))
(let (($e382 ((_ extract 5 2) $e381)))
(let (($e385                    $e382       ))
(let (($e386 (store a85 (bvnot $e1) $e385)))
(let (($e387 (select $e386 (bvnot $e362))))
             (   extract      $e387)
                                                                                                                                                                                                                                                                                                                                                                                                                                                                                                                                                                                                                                                                                                                                                                                                                                                                                                                                                                                                                                                                                                                                                                                      )))  ))  )))))           )                         ))))))))                                                                                                                                                                                                                                                                                      )    )))
